NAME : local_5
TYPE : ATSP
DIMENSION : 9
EDGE_WEIGHT_TYPE : EXPLICIT
EDGE_WEIGHT_FORMAT : FULL_MATRIX
EDGE_WEIGHT_SECTION
0 10000000 943 551 10000000 860 385 10000000 607 
0 0 1034 10000000 787 852 10000000 667 1150 
0 1015 0 925 332 10000000 10000000 811 1022 
0 10000000 925 0 10000000 429 279 10000000 197 
0 787 332 10000000 0 10000000 10000000 525 10000000 
0 858 10000000 429 10000000 0 503 10000000 269 
0 10000000 10000000 279 10000000 503 0 10000000 251 
0 667 811 10000000 525 10000000 10000000 0 10000000 
0 10000000 10000000 10000000 10000000 10000000 10000000 10000000 0 
EOF